
<<< setup


<<< generate

Tried aggregator 1 time.
MIP Presolve eliminated 20 rows and 17 columns.
MIP Presolve modified 41 coefficients.
Reduced MIP has 745 rows, 626 columns, and 3311 nonzeros.
Reduced MIP has 546 binaries, 0 generals, 0 SOSs, and 0 indicators.
Presolve time = 0,00 sec. (1,62 ticks)
Found incumbent of value 1,000000 after 0,01 sec. (5,02 ticks)
Probing fixed 0 vars, tightened 26 bounds.
Probing time = 0,01 sec. (6,16 ticks)
Tried aggregator 1 time.
MIP Presolve modified 19 coefficients.
Reduced MIP has 745 rows, 626 columns, and 3311 nonzeros.
Reduced MIP has 546 binaries, 0 generals, 0 SOSs, and 0 indicators.
Presolve time = 0,00 sec. (1,55 ticks)
Probing time = 0,00 sec. (2,98 ticks)
Clique table members: 2234.
MIP emphasis: balance optimality and feasibility.
MIP search method: dynamic search.
Parallel mode: deterministic, using up to 4 threads.
Root relaxation solution time = 0,01 sec. (11,30 ticks)

        Nodes                                         Cuts/
   Node  Left     Objective  IInf  Best Integer    Best Bound    ItCnt     Gap

*     0+    0                            1,0000       39,0000      395     --- 
      0     0       38,6939   254        1,0000       38,6939      395     --- 
      0     0       38,6934   187        1,0000      Cuts: 25      417     --- 
*     0+    0                            2,0000       38,6934      478     --- 
      0     0       38,6899   164        2,0000      Cuts: 86      478     --- 
      0     0       38,6865   158        2,0000      Cuts: 78      582     --- 
      0     0       38,6771   155        2,0000      Cuts: 68      692     --- 
      0     0       38,6629   141        2,0000      Cuts: 62      750     --- 
      0     0       38,6486   152        2,0000      Cuts: 83      839     --- 
      0     0       38,6088   154        2,0000      Cuts: 92      935     --- 
      0     0       38,4523   158        2,0000     Cuts: 119     1076     --- 
      0     0       38,3383   174        2,0000      Cuts: 79     1198     --- 
      0     0       38,2428   162        2,0000     Cuts: 121     1318     --- 
      0     0       38,1534   166        2,0000     Cuts: 113     1390     --- 
      0     0       38,1152   158        2,0000     Cuts: 167     1491     --- 
      0     0       38,0810   161        2,0000     Cuts: 225     1608     --- 
      0     0       38,0487   151        2,0000     Cuts: 286     1699     --- 
      0     0       38,0169   150        2,0000     Cuts: 286     1808     --- 
      0     0       37,9879   144        2,0000     Cuts: 286     1925     --- 
      0     0       37,9656   153        2,0000     Cuts: 286     2015     --- 
      0     0       37,9349   150        2,0000     Cuts: 286     2087     --- 
*     0+    0                            4,0000       37,9349     2156  848,37%
      0     0       37,8955   143        4,0000     Cuts: 286     2156  847,39%
      0     0       37,8320   144        4,0000     Cuts: 286     2243  845,80%
      0     0       37,7986   143        4,0000     Cuts: 286     2343  844,97%
      0     0       37,7956   123        4,0000     Cuts: 286     2393  844,89%
      0     0       37,7795    85        4,0000     Cuts: 204     2425  844,49%
*     0+    0                            7,0000       37,7795     2425  439,71%
      0     0       37,5433    96        7,0000     Cuts: 178     2466  436,33%
*     0+    0                            8,0000       37,5433     2466  369,29%
      0     0       37,3519   109        8,0000     Cuts: 154     2538  366,90%
*     0+    0                            9,0000       37,3519     2538  315,02%
      0     0       37,2479   121        9,0000     Cuts: 246     2599  313,87%
*     0+    0                           12,0000       37,2479     2599  210,40%
      0     0       37,0806   147       12,0000     Cuts: 239     2714  209,01%
      0     0       36,7524   113       12,0000     Cuts: 208     2800  206,27%
*     0+    0                           13,0000       36,7524     2800  182,71%
      0     0       36,1240   135       13,0000     Cuts: 240     2892  177,88%
      0     0       35,4379   151       13,0000     Cuts: 268     3019  172,60%
      0     0       35,2411   134       13,0000     Cuts: 136     3120  171,09%
      0     0       34,4694   139       13,0000     Cuts: 210     3183  165,15%
      0     0       33,7255   112       13,0000     Cuts: 195     3280  159,43%
      0     0       33,5178   143       13,0000     Cuts: 215     3344  157,83%
      0     0       33,3083   136       13,0000     Cuts: 232     3391  156,22%
      0     0       32,8677   136       13,0000     Cuts: 286     3486  152,83%
      0     0       32,1641   148       13,0000     Cuts: 286     3572  147,42%
      0     0       31,7801   165       13,0000     Cuts: 286     3756  144,46%
      0     0       31,5250   157       13,0000     Cuts: 286     3987  142,50%
      0     0       31,0345   158       13,0000     Cuts: 235     4193  138,73%
      0     0       30,9411   147       13,0000     Cuts: 160     4297  138,01%
      0     0       30,3332   189       13,0000     Cuts: 135     4605  133,33%
      0     0       30,0616   129       13,0000     Cuts: 193     4808  131,24%
      0     0       29,6886   130       13,0000     Cuts: 179     5016  128,37%
      0     0       29,5135   148       13,0000     Cuts: 171     5104  127,03%
      0     0       29,2809   149       13,0000     Cuts: 165     5174  125,24%
      0     0       29,2648   126       13,0000     Cuts: 205     5291  125,11%
      0     0       29,2586   140       13,0000     Cuts: 279     5399  125,07%
      0     2       29,2586   133       13,0000       29,2586     5399  125,07%
Elapsed time = 3,09 sec. (1259,79 ticks, tree = 0,01 MB, solutions = 8)
*     5+    5                           16,0000       28,8775     9712   80,48%
      5     7       26,9248   268       16,0000       28,8775     9712   80,48%
*    13+   13                           17,0000       27,5605    13231   62,12%
*    68+   65                           23,0000       27,1784    24574   18,17%
     72    71       25,0124   200       23,0000       27,1784    26546   18,17%
    186   110       25,0339   191       23,0000       26,8288    47472   16,65%
    257   145       25,3533   224       23,0000       26,8288    62546   16,65%
    315   172       24,0091   183       23,0000       26,5090    78721   15,26%
    343   178       25,4172   171       23,0000       26,4561    93577   15,03%
    401   200       24,8968   125       23,0000       26,4561   109242   15,03%
    439   210       24,4827   343       23,0000       26,4561   122617   15,03%
    480   222        cutoff             23,0000       26,1485   134386   13,69%
    683   267       24,3698   267       23,0000       25,7432   196897   11,93%
Elapsed time = 11,13 sec. (4623,02 ticks, tree = 0,55 MB, solutions = 11)
    897   301       24,6950   261       23,0000       25,3419   264199   10,18%
   1141   272       24,1496   218       23,0000       25,0257   321703    8,81%
   1392   255       24,3254    97       23,0000       24,7581   377014    7,64%
   1739   360       24,2135    85       23,0000       24,4585   434908    6,34%
   2637   399       24,3254   151       23,0000       24,4373   487332    6,25%
   3349   134       24,1052    33       23,0000       24,2615   550489    5,48%

Clique cuts applied:  3
Flow cuts applied:  52
Mixed integer rounding cuts applied:  328
Zero-half cuts applied:  127

Root node processing (before b&c):
  Real time             =    3,08 sec. (1254,68 ticks)
Parallel b&c, 4 threads:
  Real time             =   24,93 sec. (9675,20 ticks)
  Sync time (average)   =    2,07 sec.
  Wait time (average)   =    0,00 sec.
                          ------------
Total (root+branch&cut) =   28,01 sec. (10929,88 ticks)

<<< solve


OBJECTIVE: 23

x[1][1] = 0 x[1][2] = 1 x[1][3] = 0 x[1][4] = 0 x[1][5] = 0 x[1][6] = 0 x[1][7] = 0 x[1][8] = 0 
x[2][1] = 0 x[2][2] = 1 x[2][3] = 1 x[2][4] = 1 x[2][5] = 0 x[2][6] = 0 x[2][7] = 0 x[2][8] = 1 
x[3][1] = 1 x[3][2] = 1 x[3][3] = 1 x[3][4] = 1 x[3][5] = 0 x[3][6] = 0 x[3][7] = 0 x[3][8] = 1 
x[4][1] = 1 x[4][2] = 1 x[4][3] = 1 x[4][4] = 1 x[4][5] = 0 x[4][6] = 0 x[4][7] = 1 x[4][8] = 1 
x[5][1] = 0 x[5][2] = 1 x[5][3] = 1 x[5][4] = 1 x[5][5] = 1 x[5][6] = 1 x[5][7] = 1 x[5][8] = 1 


<<< post process


<<< done

